# Objective value = 3.0012713083042740e+02
x[0] 0
x[1] 9.9999994950419480e-01
x[2] 1
x[3] 1
x[4] -2.6931095797877447e-08
x[5] 1
x[6] 0
x[7] 0
x[8] -2.5924486473596925e-07
x[9] 1
x[10] 1
x[11] 0
x[12] 1.0000001615448535e+00
x[13] 1
x[14] 1.0000001210297895e+00
x[15] 1
x[16] 1
x[17] 0
x[18] -1.6158658211473664e-07
x[19] 0
x[20] -2.5587847842268985e-07
x[21] 1.0000000267851072e+00
x[22] 0
x[23] 0
x[24] 1
x[25] -3.7063310422576444e-08
x[26] 1
x[27] 0
x[28] 0
x[29] 0
x[30] 0
x[31] 9.9999979461732880e-01
x[32] 1.0091783191593307e-07
x[33] 1
x[34] -2.6931095797877447e-08
x[35] 0
x[36] 0
x[37] 5.6601251865400594e-08
x[38] 2.0860295193590657e-07
x[39] -2.3597762464544113e-08
x[40] -2.6931095797877447e-08
x[41] -2.3564709072942946e-08
x[42] 0
x[43] 1.0000000268705809e+00
x[44] -1.5825324870184394e-07
x[45] 1.0000000268830791e+00
x[46] 1
x[47] 0
x[48] 0
x[49] 0
x[50] -2.3597762464544113e-08
x[51] -1.6158658210286886e-07
x[52] 1
x[53] 0
x[54] 0
x[55] 0
x[56] 0
x[57] 0
x[58] 0
x[59] 0
x[60] 1
x[61] -1.6158658211473664e-07
x[62] 0
x[63] -2.6931095797877447e-08
x[64] 1
x[65] 1
x[66] 0
x[67] 1
x[68] 0
x[69] 1
x[70] -1.3802187304179370e-07
x[71] -2.6931095797877447e-08
x[72] 1
x[73] 1.0000000268091223e+00
x[74] 0
x[75] 0
x[76] 1
x[77] 0
x[78] -2.6931095797877447e-08
x[79] 0
x[80] 0
x[81] 9.9999979628399560e-01
x[82] 0
x[83] 0
x[84] 1
x[85] 1.0000000134074545e+00
x[86] 0
x[87] 0
x[88] 9.9999979128399563e-01
x[89] 1.0000000268730564e+00
x[90] 0
x[91] 1
x[92] 1
x[93] 1
x[94] -1.3802187298810030e-07
x[95] 1
x[96] 1
x[97] 1
x[98] 1.0000000134259621e+00
x[99] 0
x[100] 1.0000000134252238e+00
x[101] 1
x[102] 0
x[103] 0
x[104] 1
x[105] 1
x[106] 0
x[107] 0
x[108] 1
x[109] 1.0000001379704546e+00
x[110] 0
x[111] 0
x[112] -1.0132214676627692e-08
x[113] 1
x[114] -1.8665729587376592e-08
x[115] 1
x[116] 1
x[117] 1
x[118] 1
x[119] 1
x[120] 0
x[121] 0
x[122] 0
x[123] 1.0000001615094705e+00
x[124] 1
x[125] 1
x[126] 1
x[127] 1
x[128] -1.3465548009961026e-08
x[129] -2.5045920603653990e-07
x[130] 1
x[131] 0
x[132] 1
x[133] 0
x[134] 1.9519598055372659e-07
x[135] 2.0857316433342296e-07
x[136] 1
x[137] 0
x[138] 0
x[139] 0
x[140] 0
x[141] 1.0000000268477189e+00
x[142] 0
x[143] 2.0866754630066344e-07
x[144] 0
x[145] 0
x[146] -1.3465547565871816e-08
x[147] 0
x[148] 1
x[149] 1
x[150] 0
x[151] 1
x[152] 0
x[153] 0
x[154] 1
x[155] 1
x[156] 0
x[157] 1
x[158] 1
x[159] 1
x[160] 0
x[161] 1
x[162] 1.0000000133136928e+00
x[163] 0
x[164] 1
x[165] 5.7179540249456668e-07
x[166] 1.0000000134126807e+00
x[167] 1
x[168] 1
x[169] 1
x[170] 1
x[171] 0
x[172] 2.0864849508489451e-07
x[173] 9.9999979128399563e-01
x[174] 0
x[175] 9.9999995450419477e-01
x[176] 9.9999995021206289e-01
x[177] 1
x[178] 0
x[179] 0
x[180] 1
x[181] 0
x[182] -2.1785107230250819e-08
x[183] 0
x[184] -1.3465548291099238e-08
x[185] 0
x[186] 1
x[187] 0
x[188] 0
x[189] 1
x[190] 1
x[191] 1
x[192] 4.9737314353171577e-08
x[193] 1.0000001379591728e+00
x[194] 1
x[195] 1.0000001345941247e+00
x[196] 1
x[197] -4.0396643807838473e-08
x[198] 1
x[199] 0
x[200] 0
x[201] 0
x[202] 1
x[203] 0
x[204] 0
x[205] 0
x[206] 1
x[207] 0
x[208] 0
x[209] 1.0000001379782193e+00
x[210] 0
x[211] 0
x[212] 0
x[213] -2.3597762464544113e-08
x[214] 0
x[215] 0
x[216] 1.3352534111215713e-08
x[217] 1
x[218] 0
x[219] 0
x[220] 0
x[221] 0
x[222] 0
x[223] 1
x[224] 0
x[225] 9.9999979628399560e-01
x[226] 1.0000000268886318e+00
x[227] 0
x[228] 1
x[229] 1
x[230] 1
x[231] 1
x[232] 0
x[233] 1.0000001378534942e+00
x[234] 0
x[235] 1
x[236] -1.3802187304179370e-07
x[237] 1
x[238] 1
x[239] -2.6931095797877447e-08
x[240] 1
x[241] 0
x[242] 0
x[243] 0
x[244] 1.0000000134287783e+00
x[245] 1
x[246] 4.94777869686029e-08
x[247] 0
x[248] 0
x[249] 1
x[250] -2.3475788951050317e-08
x[251] 1
x[252] 0
x[253] 1.0000001513107433e+00
x[254] 0
x[255] 1.0000001244983634e+00
x[256] 0
x[257] 1
x[258] 1
x[259] 0
x[260] 0
x[261] 1
x[262] -1.3465548631685920e-07
x[263] -2.6931095797877447e-08
x[264] 0
x[265] 0
x[266] 0
x[267] 1
x[268] 9.9999998653445188e-01
x[269] 1.0000000268632698e+00
x[270] 1
x[271] 1
x[272] 1
x[273] 1
x[274] 1.0000001379548991e+00
x[275] 0
x[276] 0
x[277] 2.0861003160623595e-07
x[278] -1.3465548009961026e-08
x[279] 1.0000002490721438e+00
x[280] 0
x[281] 0
x[282] 0
x[283] 0
x[284] 1.0000001614949683e+00
x[285] 0
x[286] 1
x[287] 0
x[288] 1
x[289] 0
x[290] 1
x[291] 0
x[292] 1
x[293] 1
x[294] 1
x[295] 2.3204013395005932e-07
x[296] 1
x[297] 0
x[298] 1.0000000403318472e+00
x[299] 1
x[300] 1
x[301] 1
x[302] 1
x[303] -3.5396644029883079e-08
x[304] 1.0000000133189144e+00
x[305] 0
x[306] 1
x[307] -1.3465547935466159e-08
x[308] 1
x[309] 0
x[310] 0
x[311] -2.4911265006366534e-07
x[312] 1
x[313] 1.0000000268740479e+00
x[314] 1
x[315] 0
x[316] 0
x[317] 0
x[318] 1
x[319] 0
x[320] 0
x[321] 1.8172877983148287e-07
x[322] 0
x[323] 1.0000000268767677e+00
x[324] 0
x[325] 1.0000000134232747e+00
x[326] 1
x[327] -1.4815408789461324e-07
x[328] 1
x[329] 0
x[330] 1
x[331] 0
x[332] 1
x[333] 1
x[334] 1
x[335] -1.0132214898672297e-08
x[336] 0
x[337] 1
x[338] 9.9999979128399563e-01
x[339] 0
x[340] 1
x[341] 0
x[342] 1
x[343] 0
x[344] 1
x[345] 0
x[346] 1
x[347] 1.0000001613171978e+00
x[348] 0
x[349] 0
x[350] 0
x[351] 1
x[352] 1
x[353] -1.6144295775607638e-07
x[354] 0
x[355] 0
x[356] 0
x[357] 5.04549275521284e-08
x[358] 0
x[359] 0
x[360] 0
x[361] -2.6931095797877447e-08
x[362] 1
x[363] 1
x[364] 1
x[365] 0
x[366] 1
x[367] 0
x[368] 1
x[369] 0
x[370] 0
x[371] 0
x[372] 1.0000000134215614e+00
x[373] 0
x[374] 0
x[375] 1.0000000268939144e+00
x[376] 1
x[377] 0
x[378] 0
x[379] 1
x[380] 1
x[381] 1.0000000536761311e+00
x[382] 1
x[383] 0
x[384] 2.0866924837367668e-07
x[385] 5.3785170859252413e-08
x[386] 0
x[387] 0
x[388] 0
x[389] -4.0396643807838473e-08
x[390] 0
x[391] 1
x[392] 1
x[393] 1
x[394] 0
x[395] 1
x[396] -1.3465547942067322e-08
x[397] 1
x[398] 1
x[399] 1
x[400] 9.9999988890922265e-01
x[401] 1
x[402] 1
x[403] 1
x[404] 0
x[405] 0
x[406] 1.0000001376902015e+00
x[407] 1
x[408] 1.0000001615494347e+00
x[409] 0
x[410] 1.0000000147451060e+00
x[411] 1
x[412] 0
x[413] 1
x[414] 1
x[415] 1
x[416] -1.6158658211473664e-07
x[417] 0
x[418] 0
x[419] 0
x[420] 1
x[421] 0
x[422] 1
x[423] 1
x[424] 0
x[425] 1
x[426] 1
x[427] 1
x[428] 0
x[429] 0
x[430] 0
x[431] 0
x[432] 1.0000000268924758e+00
x[433] 0
x[434] -1.3465548009961026e-08
x[435] 0
x[436] -1.0099161285026526e-08
x[437] 1
x[438] 0
x[439] 0
x[440] 1
x[441] 0
x[442] 0
x[443] 1
x[444] 0
x[445] 0
x[446] 0
x[447] 0
x[448] 1
x[449] 0
x[450] 0
x[451] 0
x[452] 0
x[453] 0
x[454] 1
x[455] 1.0000000133719269e+00
x[456] 0
x[457] 0
x[458] 0
x[459] 0
x[460] 0
x[461] 0
x[462] 1
x[463] 1.0000000132655242e+00
x[464] 0
x[465] 1
x[466] 0
x[467] 1
x[468] 1
x[469] 1
x[470] 0
x[471] 1.0000000265662035e+00
x[472] 0
x[473] 0
x[474] 0.999999953596019
x[475] 1
x[476] 0
x[477] 0
x[478] -1.3802187304179370e-07
x[479] 1
x[480] 0
x[481] 1
x[482] -1.3465548009961026e-08
x[483] 1
x[484] 0.999999794617329
x[485] 1.0000000268116196e+00
x[486] 0
x[487] 1
x[488] 0
x[489] 0
x[490] 0
x[491] 1
x[492] 9.9999965826212234e-01
x[493] 1
x[494] 0
x[495] -1.0132214224141451e-08
x[496] 1
x[497] 1
x[498] 0
x[499] 2.6424027674108472e-08
x[500] 0
x[501] 1
x[502] 0
x[503] 1
x[504] 1
x[505] 0
x[506] 1.0000000134014726e+00
x[507] 0
x[508] 1
x[509] 0
x[510] 9.9999994777141687e-01
x[511] -1.3802187304179370e-07
x[512] 0
x[513] 0
x[514] 0
x[515] 0
x[516] 0
x[517] 1
x[518] 0
x[519] 0
x[520] 0
x[521] 1
x[522] 0
x[523] 1
x[524] 0
x[525] 9.9999997306890420e-01
x[526] 1
x[527] 0
x[528] 0
x[529] 1
x[530] 1
x[531] 1.0000000100240156e+00
x[532] 1
x[533] 1.0000000268900935e+00
x[534] 0
x[535] 9.9999994950419480e-01
x[536] 0
x[537] 0
x[538] 1
x[539] 0
x[540] 0
x[541] 1
x[542] 0
x[543] 1
x[544] 1
x[545] 1.0000000235196065e+00
x[546] 1
x[547] 1
x[548] 1.0000002490667788e+00
x[549] 0
x[550] 1
x[551] 1.0000000268866285e+00
x[552] 0
x[553] 1
x[554] 1.0000000134225975e+00
x[555] 1
x[556] -1.3465547942067322e-08
x[557] 0
x[558] 9.9999979128399563e-01
x[559] 1
x[560] 0
x[561] 0
x[562] 0
x[563] 1
x[564] 1
x[565] 0
x[566] 1.0000000133859417e+00
x[567] 0
x[568] 0
x[569] 0
x[570] 1
x[571] 0
x[572] 1
x[573] 1.0000000403338976e+00
x[574] 0.999999794617329
x[575] 1
x[576] 0
x[577] 1
x[578] 0
x[579] 1
x[580] 2.0859130147101909e-07
x[581] 0
x[582] 1
x[583] 5.0322123310194465e-08
x[584] 1
x[585] 1
x[586] 0
x[587] 0
x[588] -2.4573344531400720e-07
x[589] 0
x[590] -8.4655480099610258e-09
x[591] 1
x[592] 1.0000001379694281e+00
x[593] 0
x[594] 1
x[595] 0
x[596] 1
x[597] 1
x[598] -4.0396644018498233e-08
x[599] 1
x[600] 0
x[601] 0
x[602] 0
x[603] 1
x[604] 0
x[605] 0
x[606] 1
x[607] 0
x[608] 0
x[609] 0
x[610] 1.0000000132220681e+00
x[611] 1
x[612] 1
x[613] 1.0000001379738586e+00
x[614] 1
x[615] 9.9999995827409693e-01
x[616] 0
x[617] -1.5148742127379933e-07
x[618] 1
x[619] 9.9999998653445210e-01
x[620] 0
x[621] 1
x[622] 1.0000001513270120e+00
x[623] 0
x[624] -1.3465548009961026e-08
x[625] 1.0000000167799414e+00
x[626] 1
x[627] 1
x[628] 0
x[629] 1
x[630] 0
x[631] 0
x[632] 1.0000000134036373e+00
x[633] 1
x[634] 0
x[635] -1.5825324878140331e-07
x[636] 0
x[637] 0
x[638] 1
x[639] -1.3465548009961026e-08
x[640] 1
x[641] 1
x[642] 0
x[643] 1
x[644] 1.0000000403585370e+00
x[645] -1.3465548009961026e-08
x[646] 0
x[647] 0
x[648] 1
x[649] 1
x[650] 0
x[651] 1
x[652] 1
x[653] 1.0000001613696892e+00
x[654] 1
x[655] 2.0865243438731086e-07
x[656] 0
x[657] -1.3465548009961026e-08
x[658] 0
x[659] -1.3465547943452565e-08
x[660] 0
x[661] -1.3465548009961026e-08
x[662] 0
x[663] -9.9855811444379736e-09
x[664] 0
x[665] 0
x[666] 1.0000000134119074e+00
x[667] 0
x[668] 1
x[669] 0
x[670] 1
x[671] -3.50137319305428e-07
x[672] 0
x[673] 0
x[674] 0
x[675] 0
x[676] 0
x[677] 0
x[678] 1
x[679] 0
x[680] -2.2032116312311092e-08
x[681] 0
x[682] 1
x[683] 0
x[684] 0
x[685] 0
x[686] 1
x[687] 0
x[688] 9.9999997306890420e-01
x[689] 1
x[690] 0
x[691] 0
x[692] 0
x[693] 0
x[694] 0
x[695] 1
x[696] 2.0867956169030904e-07
x[697] 0
x[698] 0
x[699] 1
x[700] 1
x[701] 9.9999981821509065e-01
x[702] -1.2455632503183267e-07
x[703] -1.0052608303868934e-08
x[704] 0
x[705] 1.0000000268592970e+00
x[706] -1.1506621398749810e-07
x[707] 1
x[708] 9.9999979461732880e-01
x[709] 1
x[710] 0
x[711] 0
x[712] -2.6931095797877447e-08
x[713] 0
x[714] 0
x[715] -1.3802187298270010e-07
x[716] 1
x[717] 9.9999989564199776e-01
x[718] 0
x[719] 2.0864420674770219e-07
x[720] 0
x[721] 1
x[722] -1.5148742127379933e-07
x[723] 1
x[724] 0
x[725] 1
x[726] 0
x[727] 1.0000001614663832e+00
x[728] -1.3465548631685920e-07
x[729] 1
x[730] 0
x[731] 1
x[732] 0
x[733] 0
x[734] 1
x[735] 1
x[736] -1.3802187326383830e-07
x[737] 0
x[738] 2.0866123299298653e-07
x[739] 0
x[740] 0
x[741] 1
x[742] 0
x[743] 0
x[744] 0
x[745] 0
x[746] 1
x[747] 1
x[748] 1.0000000133556401e+00
x[749] 1
x[750] 0
x[751] 1
x[752] 1
x[753] 0
x[754] 1
x[755] 1
x[756] 1
x[757] 1
x[758] 0
x[759] 1
x[760] 1
x[761] 1
x[762] 1.0000000133684896e+00
x[763] 0
x[764] 1.0000000133858731e+00
x[765] -1.3465548009961026e-08
x[766] 0
x[767] -2.6931095797877447e-08
x[768] 0
x[769] 1
x[770] 0
x[771] 1
x[772] 1
x[773] 1
x[774] 0
x[775] 0
x[776] 0
x[777] 0
x[778] 0
x[779] 1.0000001513922760e+00
x[780] 9.9999980813735279e-01
x[781] 5.03221069253647e-08
x[782] 1
x[783] 1
x[784] 1
x[785] 9.9999995450419477e-01
x[786] 1
x[787] 0
x[788] 0
x[789] 0
x[790] 1
x[791] 0
x[792] 0
x[793] 9.9999979128399563e-01
x[794] 1
x[795] 0
x[796] 0
x[797] 0
x[798] 0
x[799] 0
x[800] 1
x[801] 0
x[802] 1
x[803] 1
x[804] 9.9999979628399560e-01
x[805] 1.0000000133918887e+00
x[806] 9.9999979468912659e-01
x[807] 1
x[808] 1.0000000134063742e+00
x[809] 0
x[810] -1.1855915341280430e-08
x[811] 0
x[812] 0
x[813] 1
x[814] 1
x[815] 0
x[816] 2.6891053659854074e-08
x[817] -2.6931095797877447e-08
x[818] 1.0000000134232627e+00
x[819] 0
x[820] 0
x[821] -2.35497457816915e-08
x[822] 0
x[823] 1
x[824] 0
x[825] 0
x[826] 1
x[827] 0
x[828] 9.9999979181122822e-01
x[829] 0
x[830] 1.0000001379638592e+00
x[831] 0
x[832] 1
x[833] 0
x[834] 1
x[835] 0
x[836] 1.0000001615361340e+00
x[837] 0
x[838] 1.0000000133968636e+00
x[839] 1
x[840] 1
x[841] 1
x[842] 0
x[843] 1
x[844] 1
x[845] 0
x[846] -1.6831934687213818e-08
x[847] 0
x[848] 1
x[849] 1
x[850] 1.0000001514489723e+00
x[851] 1
x[852] 0
x[853] 1
x[854] 1.0000001514491670e+00
x[855] 0
x[856] 1
x[857] -1.3465548232005631e-08
x[858] 1
x[859] 1
x[860] 1
x[861] 0
x[862] -1.5658658211473664e-07
x[863] 2.0743775976292735e-07
x[864] 0
x[865] 1
x[866] 0
x[867] 1
x[868] 1
x[869] 1
x[870] 1
x[871] 1
x[872] 0
x[873] 0
x[874] 1
x[875] 0
x[876] 0
x[877] 0
x[878] 0
x[879] 1
x[880] 1
x[881] 0
x[882] 1
x[883] 4.9526469629999174e-08
x[884] 0
x[885] 1
x[886] 0
x[887] 1
x[888] 1.3424566686874464e-08
x[889] 2.0867468250133428e-07
x[890] 0
x[891] 0
x[892] 0
x[893] -4.0396644029883078e-08
x[894] -1.5148742122794658e-07
x[895] 1
x[896] 1.0000000268457547e+00
x[897] 0
x[898] 1.0000000133114426e+00
x[899] 0
x[900] 1
x[901] 1.0000000268794684e+00
x[902] 1
x[903] 1.0000001345941982e+00
x[904] 0
x[905] 0
x[906] 2.0863207663741291e-07
x[907] 1.0000002490524569e+00
x[908] 1.0000000268446088e+00
x[909] 0
x[910] 1
x[911] 1
x[912] 1
x[913] 0
x[914] 1
x[915] 1
x[916] 1
x[917] 0
x[918] 1
x[919] 1
x[920] 1
x[921] 1
x[922] 1.0000000134098175e+00
x[923] 1
x[924] 1
x[925] 1
x[926] 1
x[927] 0
x[928] 1
x[929] 0
x[930] 0
x[931] 1
x[932] -1.3465548232005631e-08
x[933] 0
x[934] 0
x[935] 0
x[936] 0
x[937] 0
x[938] -1.0073040898076033e-08
x[939] 0
x[940] 0
x[941] 0
x[942] -2.7604374617697076e-07
x[943] 1
x[944] 1
x[945] 1.0000002490589031e+00
x[946] 1
x[947] 1
x[948] 0
x[949] 1
x[950] 1
x[951] 0
x[952] 0
x[953] 1
x[954] 1
x[955] -1.3802187330211882e-07
x[956] 0
x[957] 0
x[958] 0
x[959] 1
x[960] 1
x[961] 0
x[962] 0
x[963] 1.0000001514210684e+00
x[964] 0
x[965] 1
x[966] 0
x[967] 1
x[968] 1
x[969] 1.0000001615153726e+00
x[970] 1
x[971] 0
x[972] -1.3302187326383830e-07
x[973] 1
x[974] 1
x[975] 0
x[976] 0
x[977] 1
x[978] 1.0000000268677021e+00
x[979] 1
x[980] 1
x[981] 1
x[982] 1
x[983] 1
x[984] 1
x[985] 1
x[986] 1
x[987] 0
x[988] 1
x[989] 1
x[990] 1
x[991] 0
x[992] 0
x[993] 0
x[994] -2.6931095797877447e-08
x[995] 0
x[996] 2.0861553048359698e-07
x[997] 1
x[998] 1
x[999] 1
